pr/lpsolve-precompiler/example/params/6
V1 = 1000
V2 = 10000

C1 = 1
C2 = 2
C3 = 2

A1 = 3
A2 = 6
A3 = 1
A4 = 2

M = 10000000

-----

