pr/lpsolve-precompiler/example/out/6.out
V1 = 1000
V2 = 10000

C1 = 1
C2 = 2
C3 = 2

A1 = 3
A2 = 6
A3 = 1
A4 = 2

M = 10000000

-----




############################
### First Model


Value of objective function: 17858.00000000

Actual values of the variables:
T                           17858
T1                          17858
T2                          17858
T3                          17858
T4                          17858
d12                             0
d21                          3714
d23                          4714
d24                          1179
Tzk1                         3714
Trk2                         3714
Tzk3                        15500
x34                             1
Trk3                        13142
Tzk2                        13142
Tzk                         15500



############################
### Second Model


Value of objective function: 18693.00000000

Actual values of the variables:
T                           18693
T1                          18693
T2                          18693
T3                          18693
T4                          18693
d1                            999
d12                             0
d21                          3923
d23                          3924
d24                          1499
x34                             0
Tzk2                        14769
Trk2                         6921
Tzk1                         6921
Tzk3                         2998
Trk3                            0
Tz1o1                        2997
Trk1                         2998
Tzk                         14769



############################
### Third Model


Value of objective function: 20870.00000000

Actual values of the variables:
T                           20870
T1                          20870
T2                          20870
T3                          20870
T4                          20870
d1                           1000
d12                             0
d21                           870
d23                          6956
d24                          1739
Tzk2                        13912
Trk2                            0
Tzk3                        17390
x34                             1
Trk3                        13912
Tz1o1                        3000
Trk1                        17390
Tzk1                        18260
